500
    1    55    45
    2    59    49
    3    53    43
    4    56    46
    5    27    17
    6    39    29
    7    60    50
    8    25    15
    9    51    41
   10    33    23
   11    51    41
   12    12     2
   13    30    20
   14    59    49
   15    41    31
   16    11     1
   17    56    46
   18    56    46
   19    19     9
   20    14     4
   21    17     7
   22    14     4
   23    60    50
   24    30    20
   25    53    43
   26    18     8
   27    21    11
   28    37    27
   29    16     6
   30    58    48
   31    14     4
   32    27    17
   33    20    10
   34    21    11
   35    35    25
   36    25    15
   37    18     8
   38    30    20
   39    17     7
   40    39    29
   41    24    14
   42    51    41
   43    23    13
   44    14     4
   45    11     1
   46    11     1
   47    56    46
   48    53    43
   49    60    50
   50    56    46
   51    31    21
   52    54    44
   53    55    45
   54    33    23
   55    27    17
   56    31    21
   57    49    39
   58    23    13
   59    14     4
   60    54    44
   61    55    45
   62    46    36
   63    51    41
   64    15     5
   65    35    25
   66    15     5
   67    24    14
   68    22    12
   69    55    45
   70    51    41
   71    22    12
   72    30    20
   73    59    49
   74    60    50
   75    28    18
   76    60    50
   77    47    37
   78    24    14
   79    36    26
   80    57    47
   81    26    16
   82    23    13
   83    33    23
   84    55    45
   85    57    47
   86    49    39
   87    19     9
   88    58    48
   89    26    16
   90    14     4
   91    54    44
   92    28    18
   93    55    45
   94    18     8
   95    39    29
   96    44    34
   97    26    16
   98    38    28
   99    17     7
  100    37    27
  101    52    42
  102    60    50
  103    57    47
  104    40    30
  105    44    34
  106    34    24
  107    15     5
  108    16     6
  109    30    20
  110    13     3
  111    17     7
  112    29    19
  113    54    44
  114    34    24
  115    58    48
  116    39    29
  117    19     9
  118    29    19
  119    49    39
  120    46    36
  121    58    48
  122    55    45
  123    42    32
  124    45    35
  125    55    45
  126    31    21
  127    28    18
  128    49    39
  129    19     9
  130    22    12
  131    29    19
  132    44    34
  133    12     2
  134    26    16
  135    28    18
  136    21    11
  137    27    17
  138    30    20
  139    21    11
  140    25    15
  141    29    19
  142    38    28
  143    29    19
  144    14     4
  145    13     3
  146    30    20
  147    50    40
  148    39    29
  149    27    17
  150    60    50
  151    46    36
  152    47    37
  153    20    10
  154    45    35
  155    16     6
  156    32    22
  157    50    40
  158    23    13
  159    30    20
  160    31    21
  161    37    27
  162    36    26
  163    49    39
  164    39    29
  165    32    22
  166    13     3
  167    15     5
  168    47    37
  169    15     5
  170    24    14
  171    39    29
  172    42    32
  173    39    29
  174    33    23
  175    41    31
  176    48    38
  177    17     7
  178    53    43
  179    16     6
  180    60    50
  181    22    12
  182    37    27
  183    56    46
  184    15     5
  185    26    16
  186    47    37
  187    25    15
  188    22    12
  189    25    15
  190    25    15
  191    36    26
  192    32    22
  193    28    18
  194    38    28
  195    58    48
  196    29    19
  197    53    43
  198    48    38
  199    15     5
  200    56    46
  201    22    12
  202    42    32
  203    27    17
  204    25    15
  205    15     5
  206    46    36
  207    47    37
  208    13     3
  209    36    26
  210    16     6
  211    13     3
  212    32    22
  213    36    26
  214    15     5
  215    60    50
  216    52    42
  217    38    28
  218    29    19
  219    58    48
  220    22    12
  221    44    34
  222    13     3
  223    56    46
  224    33    23
  225    52    42
  226    59    49
  227    44    34
  228    55    45
  229    22    12
  230    47    37
  231    30    20
  232    30    20
  233    22    12
  234    32    22
  235    16     6
  236    32    22
  237    58    48
  238    21    11
  239    22    12
  240    20    10
  241    35    25
  242    49    39
  243    42    32
  244    44    34
  245    43    33
  246    13     3
  247    58    48
  248    28    18
  249    14     4
  250    13     3
  251    40    30
  252    58    48
  253    33    23
  254    34    24
  255    57    47
  256    11     1
  257    36    26
  258    25    15
  259    20    10
  260    34    24
  261    57    47
  262    24    14
  263    38    28
  264    56    46
  265    36    26
  266    21    11
  267    27    17
  268    22    12
  269    30    20
  270    41    31
  271    51    41
  272    25    15
  273    36    26
  274    32    22
  275    16     6
  276    15     5
  277    33    23
  278    20    10
  279    39    29
  280    39    29
  281    36    26
  282    37    27
  283    22    12
  284    22    12
  285    18     8
  286    53    43
  287    28    18
  288    33    23
  289    34    24
  290    35    25
  291    59    49
  292    26    16
  293    13     3
  294    36    26
  295    34    24
  296    12     2
  297    16     6
  298    48    38
  299    55    45
  300    54    44
  301    42    32
  302    44    34
  303    48    38
  304    20    10
  305    11     1
  306    33    23
  307    27    17
  308    39    29
  309    49    39
  310    14     4
  311    21    11
  312    47    37
  313    37    27
  314    57    47
  315    28    18
  316    42    32
  317    13     3
  318    35    25
  319    18     8
  320    42    32
  321    30    20
  322    54    44
  323    56    46
  324    17     7
  325    23    13
  326    33    23
  327    31    21
  328    54    44
  329    44    34
  330    54    44
  331    55    45
  332    38    28
  333    16     6
  334    18     8
  335    31    21
  336    57    47
  337    47    37
  338    45    35
  339    20    10
  340    40    30
  341    46    36
  342    24    14
  343    53    43
  344    31    21
  345    28    18
  346    33    23
  347    25    15
  348    25    15
  349    52    42
  350    18     8
  351    54    44
  352    41    31
  353    13     3
  354    60    50
  355    34    24
  356    29    19
  357    59    49
  358    43    33
  359    41    31
  360    30    20
  361    46    36
  362    54    44
  363    50    40
  364    57    47
  365    31    21
  366    22    12
  367    33    23
  368    14     4
  369    48    38
  370    34    24
  371    24    14
  372    27    17
  373    19     9
  374    60    50
  375    58    48
  376    45    35
  377    51    41
  378    51    41
  379    28    18
  380    42    32
  381    25    15
  382    22    12
  383    58    48
  384    23    13
  385    55    45
  386    33    23
  387    11     1
  388    57    47
  389    40    30
  390    47    37
  391    23    13
  392    51    41
  393    31    21
  394    20    10
  395    37    27
  396    15     5
  397    16     6
  398    20    10
  399    52    42
  400    27    17
  401    52    42
  402    31    21
  403    12     2
  404    11     1
  405    44    34
  406    35    25
  407    52    42
  408    37    27
  409    30    20
  410    13     3
  411    60    50
  412    12     2
  413    11     1
  414    26    16
  415    55    45
  416    29    19
  417    32    22
  418    23    13
  419    56    46
  420    56    46
  421    17     7
  422    16     6
  423    49    39
  424    56    46
  425    60    50
  426    42    32
  427    52    42
  428    14     4
  429    23    13
  430    49    39
  431    48    38
  432    14     4
  433    39    29
  434    20    10
  435    23    13
  436    46    36
  437    40    30
  438    55    45
  439    53    43
  440    38    28
  441    33    23
  442    39    29
  443    50    40
  444    26    16
  445    60    50
  446    27    17
  447    13     3
  448    38    28
  449    25    15
  450    58    48
  451    25    15
  452    35    25
  453    22    12
  454    51    41
  455    36    26
  456    47    37
  457    18     8
  458    58    48
  459    24    14
  460    60    50
  461    28    18
  462    55    45
  463    43    33
  464    24    14
  465    12     2
  466    51    41
  467    45    35
  468    59    49
  469    52    42
  470    51    41
  471    13     3
  472    14     4
  473    46    36
  474    60    50
  475    52    42
  476    42    32
  477    30    20
  478    21    11
  479    18     8
  480    44    34
  481    22    12
  482    54    44
  483    22    12
  484    40    30
  485    22    12
  486    59    49
  487    60    50
  488    35    25
  489    27    17
  490    49    39
  491    40    30
  492    47    37
  493    49    39
  494    59    49
  495    27    17
  496    26    16
  497    39    29
  498    18     8
  499    31    21
  500    47    37
8518
